NAME: rue_15_9
TYPE: TSP
DIMENSION: 15
EDGE_WEIGHT_TYPE: EUC_2D
NODE_COORD_SECTION
1 40 24
2 10 11
3 17 19
4 18 26
5 23 29
6 14 25
7 13 24
8 31 39
9 27 40
10 32 26
11 18 36
12 37 7
13 19 4
14 15 31
15 5 12

